% Logging successfully configured
%%%mzn-stat: initTime=0.022773968
%%%mzn-stat: objective=913
%%%mzn-stat: nodes=1490000
%%%mzn-stat: restarts=0
%%%mzn-stat: peakDepth=1202
%%%mzn-stat: solveTime=571.735749832
%%%mzn-stat: variables=1812
%%%mzn-stat: propagators=1456
%%%mzn-stat: failures=466388
%%%mzn-stat: propagations=14544085
%%%mzn-stat: nogoods=466388
%%%mzn-stat: numAtomicConstraintsPropagated=0
%%%mzn-stat: allDifferentNumber1TotalHallSetSize=24964664
%%%mzn-stat: allDifferentNumber1NumberOfConflicts=437216
%%%mzn-stat: allDifferentNumber1MaxHallSetSize=104
%%%mzn-stat: allDifferentNumber1PropagationsTotal=3017215
%%%mzn-stat: allDifferentNumber1PropagationsThatFoundConflict=437216
%%%mzn-stat: circuitNumber2PropagationsThatFoundConflict=11307
%%%mzn-stat: circuitNumber2TotalFixedEdgesAtConflict=1189772
%%%mzn-stat: circuitNumber2NumberOfConflicts=11307
%%%mzn-stat: circuitNumber2PropagationsThatPruned=214676
%%%mzn-stat: circuitNumber2PropagationsTotal=1667806
%%%mzn-stat: AverageConflictSize=44.62192423475733
%%%mzn-stat: NumUnitNogoodsLearned=0
%%%mzn-stat: AverageLearnedNogoodLength=52.47189893393484
%%%mzn-stat: AverageBacktrackAmount=0
%%%mzn-stat: AverageLbd=48.76149686527098
%%%mzn-stat: 2AutonomousSearchNumBackupCalled=1091
%%%mzn-stat: 2AutonomousSearchNumPredicatesRemoved=0
%%%mzn-stat: 2AutonomousSearchNumCalls=1092
%%%mzn-stat: 2AutonomousSearchNumPredicatesAdded=7596
%%%mzn-stat: 2AutonomousSearchAverageSizeOfHeap=6.956043956043956
%%%mzn-stat: 2AutonomousSearchNumAssignedPredicatesEncountered=7596
%%%mzn-stat-end
maxleg = 913;
succ = array1d(1..150,[22, 11, 55, 17, 13, 26, 8, 47, 42, 14, 28, 27, 20, 21, 32, 24, 51, 2, 25, 30, 103, 4, 76, 46, 31, 37, 23, 57, 53, 73, 36, 7, 52, 44, 19, 81, 39, 15, 41, 50, 43, 35, 58, 12, 38, 75, 16, 1, 54, 60, 83, 62, 61, 70, 9, 85, 64, 123, 107, 79, 78, 10, 29, 124, 3, 18, 80, 86, 150, 45, 34, 65, 130, 48, 100, 134, 90, 89, 88, 97, 102, 95, 93, 68, 67, 138, 92, 120, 82, 63, 72, 56, 106, 5, 84, 121, 127, 104, 66, 105, 87, 69, 74, 142, 96, 119, 129, 136, 99, 101, 125, 110, 59, 118, 98, 112, 6, 128, 126, 115, 148, 77, 109, 71, 131, 137, 111, 113, 139, 144, 117, 49, 33, 143, 132, 133, 145, 116, 108, 94, 149, 141, 114, 135, 147, 91, 146, 122, 140, 40]);
% time elapsed: 572.50 s
----------
%%%mzn-stat: initTime=0.022773968
%%%mzn-stat: objective=816
%%%mzn-stat: nodes=1492316
%%%mzn-stat: restarts=0
%%%mzn-stat: peakDepth=1202
%%%mzn-stat: solveTime=572.105299112
%%%mzn-stat: variables=1812
%%%mzn-stat: propagators=1456
%%%mzn-stat: failures=466706
%%%mzn-stat: propagations=14558757
%%%mzn-stat: nogoods=466706
%%%mzn-stat: numAtomicConstraintsPropagated=0
%%%mzn-stat: allDifferentNumber1TotalHallSetSize=24970283
%%%mzn-stat: allDifferentNumber1NumberOfConflicts=437495
%%%mzn-stat: allDifferentNumber1MaxHallSetSize=104
%%%mzn-stat: allDifferentNumber1PropagationsTotal=3019309
%%%mzn-stat: allDifferentNumber1PropagationsThatFoundConflict=437495
%%%mzn-stat: circuitNumber2PropagationsThatFoundConflict=11335
%%%mzn-stat: circuitNumber2TotalFixedEdgesAtConflict=1192303
%%%mzn-stat: circuitNumber2NumberOfConflicts=11335
%%%mzn-stat: circuitNumber2PropagationsThatPruned=214792
%%%mzn-stat: circuitNumber2PropagationsTotal=1669144
%%%mzn-stat: AverageConflictSize=44.61002644062857
%%%mzn-stat: NumUnitNogoodsLearned=0
%%%mzn-stat: AverageLearnedNogoodLength=52.46585859191868
%%%mzn-stat: AverageBacktrackAmount=0
%%%mzn-stat: AverageLbd=48.74534932055727
%%%mzn-stat: 2AutonomousSearchNumBackupCalled=2177
%%%mzn-stat: 2AutonomousSearchNumPredicatesRemoved=0
%%%mzn-stat: 2AutonomousSearchNumCalls=2179
%%%mzn-stat: 2AutonomousSearchNumPredicatesAdded=11243
%%%mzn-stat: 2AutonomousSearchAverageSizeOfHeap=7.285452042221203
%%%mzn-stat: 2AutonomousSearchNumAssignedPredicatesEncountered=15875
%%%mzn-stat-end
maxleg = 816;
succ = array1d(1..150,[22, 11, 55, 17, 13, 26, 8, 47, 42, 14, 28, 27, 20, 21, 32, 24, 51, 2, 25, 30, 103, 4, 76, 46, 31, 37, 23, 57, 53, 73, 36, 7, 52, 44, 19, 81, 39, 15, 41, 50, 43, 35, 58, 12, 38, 75, 16, 1, 54, 60, 83, 62, 61, 70, 9, 85, 64, 131, 107, 79, 78, 10, 29, 124, 3, 18, 80, 86, 150, 67, 34, 65, 130, 48, 100, 114, 90, 89, 88, 74, 133, 95, 93, 68, 138, 56, 92, 120, 82, 63, 72, 101, 106, 5, 84, 121, 66, 104, 109, 105, 123, 69, 118, 142, 96, 119, 129, 136, 111, 87, 127, 110, 59, 134, 98, 112, 6, 128, 126, 115, 148, 77, 117, 71, 99, 137, 97, 113, 139, 144, 125, 45, 33, 143, 49, 102, 145, 116, 108, 94, 149, 141, 91, 135, 146, 147, 132, 122, 140, 40]);
% time elapsed: 572.88 s
----------
%%%mzn-stat: initTime=0.022773968
%%%mzn-stat: objective=617
%%%mzn-stat: nodes=1494046
%%%mzn-stat: restarts=0
%%%mzn-stat: peakDepth=1202
%%%mzn-stat: solveTime=572.229015767
%%%mzn-stat: variables=1812
%%%mzn-stat: propagators=1456
%%%mzn-stat: failures=466748
%%%mzn-stat: propagations=14566170
%%%mzn-stat: nogoods=466748
%%%mzn-stat: numAtomicConstraintsPropagated=0
%%%mzn-stat: allDifferentNumber1TotalHallSetSize=24970811
%%%mzn-stat: allDifferentNumber1NumberOfConflicts=437534
%%%mzn-stat: allDifferentNumber1MaxHallSetSize=104
%%%mzn-stat: allDifferentNumber1PropagationsTotal=3020254
%%%mzn-stat: allDifferentNumber1PropagationsThatFoundConflict=437534
%%%mzn-stat: circuitNumber2PropagationsThatFoundConflict=11337
%%%mzn-stat: circuitNumber2TotalFixedEdgesAtConflict=1192530
%%%mzn-stat: circuitNumber2NumberOfConflicts=11337
%%%mzn-stat: circuitNumber2PropagationsThatPruned=214858
%%%mzn-stat: circuitNumber2PropagationsTotal=1669840
%%%mzn-stat: AverageConflictSize=44.6082511333739
%%%mzn-stat: NumUnitNogoodsLearned=0
%%%mzn-stat: AverageLearnedNogoodLength=52.463489934611395
%%%mzn-stat: AverageBacktrackAmount=0
%%%mzn-stat: AverageLbd=48.742351333053385
%%%mzn-stat: 2AutonomousSearchNumBackupCalled=3260
%%%mzn-stat: 2AutonomousSearchNumPredicatesRemoved=0
%%%mzn-stat: 2AutonomousSearchNumCalls=3263
%%%mzn-stat: 2AutonomousSearchNumPredicatesAdded=12621
%%%mzn-stat: 2AutonomousSearchAverageSizeOfHeap=7.484829911124732
%%%mzn-stat: 2AutonomousSearchNumAssignedPredicatesEncountered=24423
%%%mzn-stat-end
maxleg = 617;
succ = array1d(1..150,[22, 11, 55, 17, 13, 26, 8, 47, 42, 14, 28, 27, 20, 21, 32, 24, 51, 2, 25, 30, 103, 4, 76, 46, 31, 37, 23, 57, 53, 73, 36, 7, 52, 44, 19, 81, 39, 15, 41, 50, 43, 35, 58, 12, 38, 75, 16, 1, 54, 60, 83, 62, 61, 70, 9, 85, 64, 131, 107, 79, 78, 69, 29, 124, 3, 18, 80, 86, 150, 67, 34, 65, 130, 48, 148, 134, 90, 89, 88, 74, 100, 45, 93, 68, 138, 56, 92, 120, 82, 63, 72, 101, 106, 5, 84, 121, 66, 104, 109, 105, 123, 133, 129, 142, 96, 119, 10, 136, 111, 87, 127, 110, 59, 118, 98, 112, 6, 128, 126, 115, 122, 77, 117, 71, 99, 137, 97, 113, 139, 144, 125, 49, 33, 143, 132, 102, 145, 116, 108, 94, 149, 141, 114, 135, 147, 91, 146, 95, 140, 40]);
% time elapsed: 573.02 s
----------
%%%mzn-stat: initTime=0.022773968
%%%mzn-stat: objective=506
%%%mzn-stat: nodes=1550765
%%%mzn-stat: restarts=0
%%%mzn-stat: peakDepth=1202
%%%mzn-stat: solveTime=599.324121682
%%%mzn-stat: variables=1812
%%%mzn-stat: propagators=1456
%%%mzn-stat: failures=488613
%%%mzn-stat: propagations=15127126
%%%mzn-stat: nogoods=488613
%%%mzn-stat: numAtomicConstraintsPropagated=0
%%%mzn-stat: allDifferentNumber1TotalHallSetSize=25789748
%%%mzn-stat: allDifferentNumber1NumberOfConflicts=458506
%%%mzn-stat: allDifferentNumber1MaxHallSetSize=104
%%%mzn-stat: allDifferentNumber1PropagationsTotal=3120888
%%%mzn-stat: allDifferentNumber1PropagationsThatFoundConflict=458506
%%%mzn-stat: circuitNumber2PropagationsThatFoundConflict=11864
%%%mzn-stat: circuitNumber2TotalFixedEdgesAtConflict=1232162
%%%mzn-stat: circuitNumber2NumberOfConflicts=11864
%%%mzn-stat: circuitNumber2PropagationsThatPruned=218033
%%%mzn-stat: circuitNumber2PropagationsTotal=1727180
%%%mzn-stat: AverageConflictSize=45.42494776029291
%%%mzn-stat: NumUnitNogoodsLearned=0
%%%mzn-stat: AverageLearnedNogoodLength=53.28920638624024
%%%mzn-stat: AverageBacktrackAmount=0
%%%mzn-stat: AverageLbd=48.18722178902321
%%%mzn-stat: 2AutonomousSearchNumBackupCalled=4341
%%%mzn-stat: 2AutonomousSearchNumPredicatesRemoved=0
%%%mzn-stat: 2AutonomousSearchNumCalls=4345
%%%mzn-stat: 2AutonomousSearchNumPredicatesAdded=19397
%%%mzn-stat: 2AutonomousSearchAverageSizeOfHeap=8.138780207134637
%%%mzn-stat: 2AutonomousSearchNumAssignedPredicatesEncountered=35363
%%%mzn-stat-end
maxleg = 506;
succ = array1d(1..150,[22, 11, 55, 17, 13, 26, 8, 47, 42, 14, 28, 27, 20, 21, 32, 24, 51, 2, 25, 30, 103, 4, 76, 46, 31, 37, 23, 57, 53, 73, 36, 7, 52, 44, 19, 81, 39, 15, 41, 50, 43, 35, 58, 12, 38, 75, 16, 1, 54, 60, 83, 62, 61, 70, 9, 85, 80, 64, 107, 79, 78, 69, 29, 124, 3, 18, 97, 86, 150, 67, 34, 65, 130, 48, 148, 134, 90, 89, 88, 74, 100, 45, 93, 68, 138, 56, 92, 120, 82, 63, 72, 101, 106, 5, 84, 121, 66, 104, 109, 105, 123, 133, 129, 142, 96, 119, 10, 136, 117, 87, 127, 110, 59, 118, 98, 112, 6, 128, 126, 115, 122, 77, 131, 71, 111, 137, 99, 113, 139, 144, 125, 49, 33, 143, 132, 102, 145, 116, 108, 94, 149, 141, 114, 135, 147, 91, 146, 95, 140, 40]);
% time elapsed: 600.12 s
----------
%%%mzn-stat: initTime=0.022773968
%%%mzn-stat: objective=274
%%%mzn-stat: nodes=1620431
%%%mzn-stat: restarts=0
%%%mzn-stat: peakDepth=1202
%%%mzn-stat: solveTime=636.382128321
%%%mzn-stat: variables=1812
%%%mzn-stat: propagators=1456
%%%mzn-stat: failures=518677
%%%mzn-stat: propagations=15859738
%%%mzn-stat: nogoods=518677
%%%mzn-stat: numAtomicConstraintsPropagated=0
%%%mzn-stat: allDifferentNumber1TotalHallSetSize=27099433
%%%mzn-stat: allDifferentNumber1NumberOfConflicts=487599
%%%mzn-stat: allDifferentNumber1MaxHallSetSize=104
%%%mzn-stat: allDifferentNumber1PropagationsTotal=3249137
%%%mzn-stat: allDifferentNumber1PropagationsThatFoundConflict=487599
%%%mzn-stat: circuitNumber2PropagationsThatFoundConflict=11950
%%%mzn-stat: circuitNumber2TotalFixedEdgesAtConflict=1238176
%%%mzn-stat: circuitNumber2NumberOfConflicts=11950
%%%mzn-stat: circuitNumber2PropagationsThatPruned=223361
%%%mzn-stat: circuitNumber2PropagationsTotal=1797191
%%%mzn-stat: AverageConflictSize=46.933197346325365
%%%mzn-stat: NumUnitNogoodsLearned=0
%%%mzn-stat: AverageLearnedNogoodLength=54.5506933987819
%%%mzn-stat: AverageBacktrackAmount=0
%%%mzn-stat: AverageLbd=47.53975017207241
%%%mzn-stat: 2AutonomousSearchNumBackupCalled=5423
%%%mzn-stat: 2AutonomousSearchNumPredicatesRemoved=0
%%%mzn-stat: 2AutonomousSearchNumCalls=5428
%%%mzn-stat: 2AutonomousSearchNumPredicatesAdded=24306
%%%mzn-stat: 2AutonomousSearchAverageSizeOfHeap=8.567980840088431
%%%mzn-stat: 2AutonomousSearchNumAssignedPredicatesEncountered=46507
%%%mzn-stat-end
maxleg = 274;
succ = array1d(1..150,[22, 11, 65, 17, 13, 26, 8, 47, 42, 14, 28, 27, 20, 21, 32, 24, 51, 2, 25, 30, 103, 4, 76, 46, 31, 37, 23, 57, 53, 73, 36, 7, 52, 44, 19, 81, 39, 15, 41, 50, 43, 35, 58, 12, 38, 75, 16, 1, 54, 60, 83, 62, 61, 70, 29, 85, 80, 64, 107, 79, 78, 69, 55, 124, 49, 18, 97, 86, 150, 67, 34, 3, 130, 48, 148, 134, 90, 89, 88, 74, 100, 95, 93, 68, 138, 56, 92, 120, 82, 63, 72, 101, 106, 5, 84, 121, 66, 104, 109, 105, 123, 133, 129, 142, 96, 119, 10, 136, 117, 87, 127, 110, 59, 118, 98, 112, 6, 128, 126, 115, 77, 9, 131, 71, 111, 137, 99, 113, 139, 91, 125, 45, 33, 143, 132, 102, 145, 116, 108, 94, 149, 141, 114, 135, 147, 144, 146, 122, 140, 40]);
% time elapsed: 637.19 s
----------
%%%mzn-stat: initTime=0.022773968
%%%mzn-stat: objective=274
%%%mzn-stat: nodes=2915655
%%%mzn-stat: restarts=0
%%%mzn-stat: peakDepth=1202
%%%mzn-stat: solveTime=1799.22777336
%%%mzn-stat: variables=1812
%%%mzn-stat: propagators=1456
%%%mzn-stat: failures=1360384
%%%mzn-stat: propagations=38004446
%%%mzn-stat: nogoods=1360384
%%%mzn-stat: numAtomicConstraintsPropagated=0
%%%mzn-stat: allDifferentNumber1TotalHallSetSize=61251644
%%%mzn-stat: allDifferentNumber1NumberOfConflicts=1131508
%%%mzn-stat: allDifferentNumber1MaxHallSetSize=104
%%%mzn-stat: allDifferentNumber1PropagationsTotal=6002541
%%%mzn-stat: allDifferentNumber1PropagationsThatFoundConflict=1131508
%%%mzn-stat: circuitNumber2PropagationsThatFoundConflict=47680
%%%mzn-stat: circuitNumber2TotalFixedEdgesAtConflict=3961753
%%%mzn-stat: circuitNumber2NumberOfConflicts=47680
%%%mzn-stat: circuitNumber2PropagationsThatPruned=387688
%%%mzn-stat: circuitNumber2PropagationsTotal=3203092
%%%mzn-stat: AverageConflictSize=66.74717506233534
%%%mzn-stat: NumUnitNogoodsLearned=0
%%%mzn-stat: AverageLearnedNogoodLength=89.70840806713399
%%%mzn-stat: AverageBacktrackAmount=0
%%%mzn-stat: AverageLbd=47.16960578777757
%%%mzn-stat: 2AutonomousSearchNumBackupCalled=5423
%%%mzn-stat: 2AutonomousSearchNumPredicatesRemoved=0
%%%mzn-stat: 2AutonomousSearchNumCalls=5428
%%%mzn-stat: 2AutonomousSearchNumPredicatesAdded=36860
%%%mzn-stat: 2AutonomousSearchAverageSizeOfHeap=8.567980840088431
%%%mzn-stat: 2AutonomousSearchNumAssignedPredicatesEncountered=46507
%%%mzn-stat-end
